(declare-fun a () Real)
(declare-fun b () Real)
(declare-fun c () Real)
(declare-fun d () Real)
(declare-fun e () Real)
(declare-fun f () Real)
(declare-fun g () Real)
(declare-fun h () Real)
(declare-fun i () Real)
(declare-fun j () Real)
(declare-fun k () Real)
(declare-fun l () Real)
(declare-fun m () Real)
(declare-fun n () Real)
(declare-fun o () Real)
(assert (= (* i o) (* m j) h))
(assert (= (+ g k o) 0))
(assert (distinct (* h a b) a))
(assert (= h (- d b)))
(assert (= (- c n l) e g))
(assert (= j c (+ d (* e f))))
(assert (> o 0))
(check-sat)
